s td 74 19 109
b 1 13 20 37 71
b 2 36 67 71 100
b 3 44 68 73 98
b 4 38 59 73 105
b 5 10 15 31 62 64 81 102
b 6 4 8 20 32 37 53 71 82
b 7 4 8 32 53 69 71 82
b 8 6 34 38 47 59 73 89 95
b 9 6 34 47 73 87 89 95
b 10 42 56 78 80 86 97 106
b 11 12 15 31 62 64 77 81 102
b 12 15 31 62 64 65 77 81 102
b 13 4 8 32 40 53 57 71 82
b 14 4 8 32 46 53 57 71 82
b 15 6 34 41 47 57 73 89 95
b 16 6 34 47 57 73 83 89 95
b 17 6 34 47 73 76 77 89 95
b 18 6 34 47 73 77 89 94 95
b 19 1 3 17 18 19 27 30 42 56 66 77 78 80 85 86 88 93 106
b 20 3 17 18 19 23 27 42 56 57 60 63 66 77 78 80 85 86 88 106
b 21 3 17 18 23 27 42 45 56 57 60 63 66 78 80 85 86 88 91 106
b 22 3 17 18 23 24 27 42 45 56 63 66 78 85 86 88 91 106
b 23 2 7 17 23 24 45 63 66 91 103
b 24 3 18 27 42 45 56 57 60 78 80 82 85 86 88 91 106
b 25 3 27 42 45 56 57 60 71 78 80 82 85 86 88 91 106
b 26 3 27 42 45 53 56 57 60 71 78 80 82 85 86 91 106
b 27 3 8 27 42 45 53 56 57 60 71 78 80 82 86 91 106
b 28 3 4 8 42 45 53 56 57 60 71 78 80 82 86 91 106
b 29 4 8 42 45 53 56 60 71 78 82 86 91 101 106
b 30 4 8 42 45 53 56 60 71 82 86 91 92 101 106
b 31 4 8 42 45 53 54 56 60 71 82 86 91 92 101
b 32 4 8 42 45 48 53 54 56 60 71 82 91 92 101
b 33 4 8 33 42 45 48 53 54 60 71 82 91 92 101
b 34 4 8 16 33 45 48 53 54 60 71 82 91 92 101 104 107
b 35 4 8 14 16 33 48 53 54 71 82 92 101 104 107
b 36 4 8 16 21 33 48 53 54 60 71 82 92 101 104 107
b 37 4 8 16 33 36 48 53 54 71 82 92 100 101 104 107
b 38 4 8 16 33 48 53 54 60 71 82 92 96 101 104 107
b 39 4 8 32 42 53 56 57 71 78 80 82 86 106
b 40 4 8 28 32 42 53 56 71 78 80 82 86 106
b 41 4 8 32 42 53 56 71 78 80 82 84 86 106
b 42 3 18 19 23 27 42 56 57 60 63 77 78 80 85 86 88 95 106
b 43 3 19 23 27 42 56 57 60 63 77 78 80 85 86 88 89 95 106
b 44 19 23 27 42 56 57 60 63 73 77 78 80 85 86 88 89 95 106
b 45 19 23 27 42 47 56 57 60 63 73 77 78 80 85 86 89 95 106
b 46 19 23 27 34 42 47 56 57 60 63 73 77 78 80 86 89 95 106
b 47 6 34 42 47 56 57 73 77 78 80 86 89 95 106
b 48 6 34 42 47 51 56 73 78 80 86 89 95 106
b 49 6 34 42 47 56 73 78 80 86 89 95 99 106
b 50 19 23 34 42 47 56 60 63 70 73 78 86 89 95 106
b 51 19 23 34 42 47 52 56 60 63 70 73 78 89 95 106
b 52 19 23 34 39 42 47 52 60 63 70 73 78 89 95 106
b 53 19 23 26 34 39 47 52 60 63 70 73 78 89 95 106
b 54 9 19 23 26 34 39 47 52 60 63 70 73 78 89 95
b 55 9 19 23 26 34 39 43 47 50 52 60 61 63 70 73 75 89 95
b 56 9 26 34 35 39 43 47 50 52 60 61 70 73 75 89 95
b 57 9 26 34 39 43 44 47 50 52 61 68 70 73 75 89 95
b 58 9 19 26 34 39 43 47 49 50 52 61 70 73 75 89 95
b 59 9 26 34 39 43 47 50 52 55 61 70 73 75 89 95
b 60 9 19 26 34 39 43 47 50 52 61 70 73 74 75 89 95
b 61 9 26 34 39 43 47 50 52 60 61 70 73 75 79 89 95
b 62 1 3 15 17 18 19 27 30 42 56 66 77 78 80 85 88 93 106
b 63 1 3 15 17 18 19 27 30 42 56 66 77 78 85 93 102 106
b 64 1 3 15 17 18 19 27 30 42 56 66 77 78 81 93 102 106
b 65 1 3 15 17 18 19 30 42 56 62 66 77 78 81 93 102 106
b 66 1 15 17 18 19 30 31 42 56 62 66 77 78 81 93 102 106
b 67 15 17 19 30 31 42 56 58 62 66 78 81 102 106
b 68 15 17 19 25 30 31 56 58 62 66 72 78 81 102 106
b 69 15 17 25 29 30 31 56 58 62 66 72 78 81 102 106
b 70 5 17 22 25 29 66 72 108
b 71 11 15 17 25 29 30 56 58 66 72 78 81 102 106
b 72 11 15 17 25 29 30 56 58 66 72 102 106 109
b 73 11 17 25 29 30 56 58 66 72 90 102 109
b 74 1 15 31 62 64 77 81 93 102 106
1 6
2 37
3 57
4 8
5 74
6 39
7 39
8 47
9 47
10 19
11 74
12 74
13 39
14 39
15 47
16 47
17 47
18 47
19 20
19 62
20 21
20 42
21 22
21 24
22 23
24 25
25 26
26 27
27 28
28 29
28 39
29 30
30 31
31 32
32 33
33 34
34 35
34 36
34 37
34 38
39 40
39 41
42 43
43 44
44 45
45 46
46 47
46 50
47 48
47 49
50 51
51 52
52 53
53 54
54 55
55 56
55 57
55 58
55 59
55 60
55 61
62 63
63 64
64 65
65 66
66 67
66 74
67 68
68 69
69 70
69 71
71 72
72 73
